[runlim] version:		1.10
[runlim] time limit:		311040000 seconds
[runlim] real time limit:	1800 seconds
[runlim] space limit:		30000 MB
[runlim] argv[0]:		python
[runlim] argv[1]:		FE.py
[runlim] argv[2]:		M-bcsstk06.mtx.rnd
[runlim] start:			Wed Oct  9 02:50:46 2024
[runlim] main pid:		16291
[runlim] log captured:
[runlim] sample:		10.0 time, 10.2 real, 941.5 MB
[runlim] sample:		20.0 time, 20.2 real, 1817.8 MB
[runlim] sample:		30.0 time, 30.2 real, 5007.5 MB
72
28
Version identifier: 20.1.0.0 | 2020-11-10 | 9bedb6d68
CPXPARAM_Simplex_PGradient                       4
CPXPARAM_Read_DataCheck                          1
CPXPARAM_MIP_Strategy_File                       3
CPXPARAM_TimeLimit                               1800
CPXPARAM_WorkMem                                 122880
[runlim] sample:		40.0 time, 40.2 real, 3316.6 MB
Presolve has eliminated 210 rows and 210 columns...
Tried aggregator 1 time.
[runlim] sample:		50.0 time, 50.2 real, 4179.9 MB
[runlim] sample:		69.7 time, 60.2 real, 6010.1 MB
[runlim] sample:		89.7 time, 70.2 real, 6010.1 MB
[runlim] sample:		109.7 time, 80.2 real, 6010.7 MB
[runlim] sample:		129.7 time, 90.2 real, 6011.6 MB
[runlim] sample:		149.7 time, 100.2 real, 6017.7 MB
[runlim] sample:		169.7 time, 110.2 real, 6019.7 MB
[runlim] sample:		189.7 time, 120.2 real, 6023.7 MB
[runlim] sample:		209.7 time, 130.2 real, 6023.7 MB
[runlim] sample:		229.7 time, 140.2 real, 6027.6 MB
[runlim] sample:		249.7 time, 150.2 real, 6031.2 MB
[runlim] sample:		269.7 time, 160.2 real, 6031.2 MB
[runlim] sample:		289.7 time, 170.2 real, 6031.2 MB
[runlim] sample:		309.7 time, 180.2 real, 6033.2 MB
[runlim] sample:		329.7 time, 190.2 real, 6037.2 MB
[runlim] sample:		349.7 time, 200.2 real, 6041.2 MB
[runlim] sample:		369.7 time, 210.2 real, 6041.2 MB
[runlim] sample:		389.7 time, 220.2 real, 6045.2 MB
[runlim] sample:		409.7 time, 230.2 real, 6045.7 MB
[runlim] sample:		429.7 time, 240.2 real, 6046.2 MB
[runlim] sample:		449.7 time, 250.2 real, 6046.2 MB
[runlim] sample:		469.7 time, 260.2 real, 6048.5 MB
[runlim] sample:		489.7 time, 270.2 real, 6048.7 MB
[runlim] sample:		509.7 time, 280.2 real, 6049.0 MB
[runlim] sample:		529.7 time, 290.2 real, 6053.7 MB
[runlim] sample:		549.7 time, 300.2 real, 6055.3 MB
[runlim] sample:		569.7 time, 310.2 real, 6059.3 MB
[runlim] sample:		589.7 time, 320.2 real, 6063.3 MB
[runlim] sample:		609.7 time, 330.2 real, 6067.3 MB
[runlim] sample:		629.7 time, 340.2 real, 6075.3 MB
[runlim] sample:		649.7 time, 350.2 real, 6077.3 MB
[runlim] sample:		669.7 time, 360.2 real, 6080.8 MB
[runlim] sample:		689.7 time, 370.2 real, 6089.3 MB
[runlim] sample:		709.7 time, 380.2 real, 6095.3 MB
[runlim] sample:		729.7 time, 390.2 real, 6099.3 MB
[runlim] sample:		749.7 time, 400.2 real, 6103.3 MB
[runlim] sample:		769.7 time, 410.2 real, 6107.3 MB
[runlim] sample:		789.6 time, 420.2 real, 6111.3 MB
[runlim] sample:		809.7 time, 430.2 real, 6115.8 MB
[runlim] sample:		829.7 time, 440.2 real, 6119.1 MB
[runlim] sample:		849.7 time, 450.2 real, 6125.4 MB
[runlim] sample:		869.6 time, 460.2 real, 6127.4 MB
[runlim] sample:		889.6 time, 470.2 real, 6133.4 MB
[runlim] sample:		909.7 time, 480.2 real, 6141.4 MB
[runlim] sample:		929.7 time, 490.2 real, 6143.4 MB
[runlim] sample:		949.6 time, 500.2 real, 6144.8 MB
[runlim] sample:		969.6 time, 510.2 real, 6151.2 MB
[runlim] sample:		989.6 time, 520.2 real, 6155.2 MB
[runlim] sample:		1009.6 time, 530.2 real, 6155.2 MB
[runlim] sample:		1029.7 time, 540.2 real, 6159.2 MB
[runlim] sample:		1049.6 time, 550.2 real, 6163.2 MB
[runlim] sample:		1069.7 time, 560.2 real, 6167.2 MB
[runlim] sample:		1081.1 time, 570.2 real, 6169.2 MB
[runlim] sample:		1091.1 time, 580.2 real, 3500.1 MB
[runlim] sample:		1101.1 time, 590.2 real, 3500.9 MB
Presolve has eliminated 1298543 rows and 210 columns...
MIP Presolve eliminated 1298543 rows and 210 columns.
MIP Presolve modified 70711 coefficients.
Reduced MIP has 164467 rows, 176190 columns, and 20667155 nonzeros.
Reduced MIP has 176190 binaries, 0 generals, 0 SOSs, and 0 indicators.
Presolve time = 557.56 sec. (929814.42 ticks)
[runlim] sample:		1111.0 time, 600.2 real, 3289.4 MB
[runlim] sample:		1121.0 time, 610.2 real, 3289.4 MB
Probing time = 0.20 sec. (43.96 ticks)
Tried aggregator 1 time.
[runlim] sample:		1133.4 time, 620.2 real, 3312.6 MB
[runlim] sample:		1143.4 time, 630.2 real, 3313.8 MB
Presolve has eliminated 0 rows and 0 columns...
Detecting symmetries...
Reduced MIP has 164467 rows, 176190 columns, and 20667155 nonzeros.
Reduced MIP has 176190 binaries, 0 generals, 0 SOSs, and 0 indicators.
Presolve time = 20.94 sec. (27468.52 ticks)
Probing time = 0.22 sec. (43.92 ticks)
Clique table members: 164467.
MIP emphasis: balance optimality and feasibility.
MIP search method: dynamic search.
Parallel mode: deterministic, using up to 8 threads.
[runlim] sample:		1165.9 time, 640.2 real, 6668.8 MB
[runlim] sample:		1214.2 time, 650.2 real, 7557.9 MB
[runlim] sample:		1270.9 time, 660.2 real, 7476.9 MB
[runlim] sample:		1310.9 time, 670.2 real, 7101.9 MB
[runlim] sample:		1350.9 time, 680.2 real, 7106.7 MB
[runlim] sample:		1390.9 time, 690.2 real, 7109.8 MB
[runlim] sample:		1430.9 time, 700.2 real, 7111.9 MB
[runlim] sample:		1468.6 time, 710.2 real, 7156.1 MB
[runlim] sample:		1508.6 time, 720.2 real, 7158.5 MB
[runlim] sample:		1548.6 time, 730.2 real, 7158.6 MB
[runlim] sample:		1588.6 time, 740.2 real, 7158.6 MB
[runlim] sample:		1628.6 time, 750.2 real, 7158.6 MB
[runlim] sample:		1666.8 time, 760.2 real, 8263.2 MB
[runlim] sample:		1706.8 time, 770.2 real, 7267.4 MB
[runlim] sample:		1746.8 time, 780.2 real, 7184.8 MB
[runlim] sample:		1786.8 time, 790.2 real, 7184.8 MB
[runlim] sample:		1826.8 time, 800.2 real, 7145.7 MB
[runlim] sample:		1864.7 time, 810.2 real, 7261.3 MB
[runlim] sample:		1904.7 time, 820.2 real, 7689.9 MB
[runlim] sample:		1944.7 time, 830.2 real, 7168.8 MB
[runlim] sample:		1984.7 time, 840.2 real, 7185.9 MB
[runlim] sample:		2024.7 time, 850.2 real, 7186.1 MB
[runlim] sample:		2063.6 time, 860.2 real, 7186.7 MB
[runlim] sample:		2101.0 time, 870.2 real, 7752.4 MB
[runlim] sample:		2141.0 time, 880.2 real, 7319.2 MB
[runlim] sample:		2181.0 time, 890.2 real, 7214.9 MB
[runlim] sample:		2221.0 time, 900.2 real, 7214.9 MB
[runlim] sample:		2261.0 time, 910.2 real, 7214.9 MB
[runlim] sample:		2292.6 time, 920.2 real, 7218.5 MB
[runlim] sample:		2352.0 time, 930.2 real, 8486.0 MB
[runlim] sample:		2412.0 time, 940.2 real, 9453.4 MB
[runlim] sample:		2472.0 time, 950.2 real, 9949.7 MB
[runlim] sample:		2532.0 time, 960.2 real, 10209.9 MB
[runlim] sample:		2592.0 time, 970.2 real, 10528.2 MB
[runlim] sample:		2652.0 time, 980.2 real, 10764.5 MB
[runlim] sample:		2712.0 time, 990.2 real, 10906.8 MB
[runlim] sample:		2772.0 time, 1000.2 real, 11044.8 MB
[runlim] sample:		2832.0 time, 1010.2 real, 11222.9 MB
[runlim] sample:		2892.0 time, 1020.2 real, 11475.0 MB
[runlim] sample:		2952.0 time, 1030.2 real, 11633.0 MB
[runlim] sample:		3012.0 time, 1040.2 real, 11763.0 MB
[runlim] sample:		3072.0 time, 1050.2 real, 11843.1 MB
[runlim] sample:		3132.0 time, 1060.2 real, 11947.3 MB
[runlim] sample:		3192.0 time, 1070.2 real, 12005.3 MB
[runlim] sample:		3251.9 time, 1080.2 real, 12093.8 MB
[runlim] sample:		3311.9 time, 1090.2 real, 12156.4 MB
[runlim] sample:		3349.4 time, 1100.2 real, 7485.8 MB
[runlim] sample:		3409.4 time, 1110.2 real, 8522.0 MB
[runlim] sample:		3469.4 time, 1120.2 real, 9431.3 MB
[runlim] sample:		3529.4 time, 1130.2 real, 9985.9 MB
[runlim] sample:		3589.4 time, 1140.2 real, 10303.8 MB
[runlim] sample:		3649.4 time, 1150.2 real, 10606.2 MB
[runlim] sample:		3709.4 time, 1160.2 real, 10837.6 MB
[runlim] sample:		3769.4 time, 1170.2 real, 10975.6 MB
[runlim] sample:		3829.4 time, 1180.2 real, 11229.6 MB
[runlim] sample:		3889.4 time, 1190.2 real, 11397.6 MB
[runlim] sample:		3949.4 time, 1200.2 real, 11492.6 MB
[runlim] sample:		4009.4 time, 1210.2 real, 11610.8 MB
[runlim] sample:		4069.4 time, 1220.2 real, 11733.3 MB
[runlim] sample:		4129.4 time, 1230.2 real, 11831.9 MB
[runlim] sample:		4189.4 time, 1240.2 real, 11924.4 MB
[runlim] sample:		4249.4 time, 1250.2 real, 11994.6 MB
[runlim] sample:		4309.4 time, 1260.2 real, 12067.1 MB
[runlim] sample:		4369.4 time, 1270.2 real, 12127.4 MB
[runlim] sample:		4428.5 time, 1280.2 real, 12137.9 MB
[runlim] sample:		4488.5 time, 1290.2 real, 12140.2 MB
[runlim] sample:		4548.5 time, 1300.2 real, 12140.2 MB
[runlim] sample:		4608.5 time, 1310.2 real, 12140.7 MB
[runlim] sample:		4668.5 time, 1320.2 real, 12141.2 MB
[runlim] sample:		4728.5 time, 1330.2 real, 12141.7 MB
[runlim] sample:		4788.5 time, 1340.2 real, 12142.0 MB
[runlim] sample:		4848.5 time, 1350.2 real, 12142.0 MB
[runlim] sample:		4908.5 time, 1360.2 real, 12142.5 MB
[runlim] sample:		4968.5 time, 1370.2 real, 12142.8 MB
[runlim] sample:		5028.5 time, 1380.2 real, 12165.9 MB
[runlim] sample:		5088.5 time, 1390.2 real, 12166.4 MB
[runlim] sample:		5148.5 time, 1400.2 real, 12166.4 MB
[runlim] sample:		5208.5 time, 1410.2 real, 12166.9 MB
[runlim] sample:		5268.5 time, 1420.2 real, 12167.4 MB
[runlim] sample:		5328.5 time, 1430.2 real, 12167.4 MB
[runlim] sample:		5388.5 time, 1440.2 real, 12167.9 MB
[runlim] sample:		5448.4 time, 1450.2 real, 12168.5 MB
[runlim] sample:		5507.8 time, 1460.2 real, 12169.0 MB
[runlim] sample:		5567.8 time, 1470.2 real, 12169.5 MB
[runlim] sample:		5627.8 time, 1480.2 real, 12170.0 MB
[runlim] sample:		5687.8 time, 1490.2 real, 12171.0 MB
[runlim] sample:		5747.8 time, 1500.2 real, 12171.0 MB
[runlim] sample:		5807.8 time, 1510.2 real, 12171.5 MB
[runlim] sample:		5867.8 time, 1520.2 real, 12172.3 MB
[runlim] sample:		5927.8 time, 1530.2 real, 12172.3 MB
[runlim] sample:		5987.8 time, 1540.2 real, 12173.1 MB
[runlim] sample:		6047.8 time, 1550.2 real, 12174.4 MB
[runlim] sample:		6107.8 time, 1560.2 real, 12174.6 MB
[runlim] sample:		6167.8 time, 1570.2 real, 12174.6 MB
[runlim] sample:		6227.8 time, 1580.2 real, 12175.9 MB
[runlim] sample:		6287.8 time, 1590.2 real, 12176.4 MB
[runlim] sample:		6347.8 time, 1600.2 real, 12177.2 MB
[runlim] sample:		6407.8 time, 1610.2 real, 12177.7 MB
[runlim] sample:		6467.8 time, 1620.2 real, 12177.7 MB
[runlim] sample:		6527.8 time, 1630.2 real, 12178.5 MB
[runlim] sample:		6587.8 time, 1640.2 real, 12201.6 MB
[runlim] sample:		6647.8 time, 1650.2 real, 12201.6 MB
[runlim] sample:		6707.8 time, 1660.2 real, 12202.9 MB
[runlim] sample:		6766.9 time, 1670.2 real, 12202.9 MB
[runlim] sample:		6826.7 time, 1680.2 real, 12203.7 MB
[runlim] sample:		6886.7 time, 1690.2 real, 12203.7 MB
[runlim] sample:		6946.7 time, 1700.2 real, 12204.7 MB
[runlim] sample:		7006.7 time, 1710.2 real, 12204.7 MB
[runlim] sample:		7066.7 time, 1720.2 real, 12205.0 MB
[runlim] sample:		7126.7 time, 1730.2 real, 12205.0 MB
[runlim] sample:		7186.7 time, 1740.2 real, 12205.7 MB
[runlim] sample:		7246.7 time, 1750.2 real, 12205.7 MB
[runlim] sample:		7306.7 time, 1760.2 real, 12205.7 MB
[runlim] sample:		7366.7 time, 1770.2 real, 12206.5 MB
[runlim] sample:		7426.7 time, 1780.2 real, 12206.5 MB
[runlim] sample:		7486.7 time, 1790.2 real, 12207.3 MB
[runlim] sample:		7546.2 time, 1800.2 real, 0.0 MB
[runlim] end:			Wed Oct  9 03:20:46 2024
[runlim] status:		out of time
[runlim] result:		2
[runlim] children:		0
[runlim] real:			1800.28 seconds
[runlim] time:			7546.35 seconds
[runlim] space:			12207.3 MB
[runlim] samples:		18001
